AES/1_3_4/ssaes_r1-20_c3_rw1_e4_f0_k1-20_aes_min_box_aes_mc_bidirectional/ExperimentMinisat_r1_k15cnf_2011-10-29-154049/Result
WARNING: for repeatability, setting FPU to use double precision
============================[ Problem Statistics ]=============================
|                                                                             |
|  Number of variables:            92                                         |
|  Number of clauses:             280                                         |
|  Parse time:                   0.00 s                                       |
|  Eliminated clauses:           0.00 Mb                                      |
|  Simplification time:          0.00 s                                       |
|                                                                             |
=============================[ Search Statistics ]==============================
| Conflicts  |          ORIGINAL         |          LEARNT          | Progress |
|            |    Vars  Clauses Literals |    Limit  Clauses Lit/Cl |          |
================================================================================
===============================================================================
restarts              : 1
conflicts             : 5              (2501 /sec)
decisions             : 12             (0.00 % random) (6003 /sec)
propagations          : 130            (65033 /sec)
conflict literals     : 22             (12.00 % deleted)
Memory used           : 8.00 MB
CPU time              : 0.001999 s

SATISFIABLE
